InboundTrucks  = 8;
OutboundTrucks = 5;
InboundDoors   = 4;
OutboundDoors  = 4;
ReleaseTime    = [100,86,10,114,111,72,73,68];
UnloadTime     = [41,40,18,30,16,22,19,26];
LoadTime       = [23,6,27,29,13];
TransferTime   = [| 20,0,15,45,0 | 0,0,33,0,0 | 0,10,0,0,0 | 24,0,27,42,0 | 0,20,0,0,49 | 0,20,0,0,13 | 0,0,0,0,40 | 0,0,0,16,0 |];
